NAME          
ROWS
 N  OBJ
 L  c2
 L  c3
 L  c4
 L  c5
 L  c6
 G  c1
COLUMNS
    ss[1]     c1        1
    ss[1]     OBJ       1000
    s[1]      c2        1
    s[1]      OBJ       -1000
    s[2]      c3        1
    s[2]      OBJ       -1000
    s[3]      c4        1
    s[3]      OBJ       -1000
    s[4]      c5        1
    s[4]      OBJ       -1000
    s[5]      c6        1
    s[5]      OBJ       -1000
    MARKER    'MARKER'                 'INTORG'
    x[1]      c2        356
    x[1]      c3        98
    x[1]      c4        581
    x[1]      c5        873
    x[1]      c6        70
    x[1]      c1        556
    x[1]      OBJ       -715
    x[2]      c2        787
    x[2]      c3        162
    x[2]      c4        89
    x[2]      c5        526
    x[2]      c6        357
    x[2]      c1        125
    x[2]      OBJ       -1115
    x[3]      c2        241
    x[3]      c3        286
    x[3]      c4        968
    x[3]      c5        987
    x[3]      c6        888
    x[3]      c1        736
    x[3]      OBJ       -826
    x[4]      c2        469
    x[4]      c3        976
    x[4]      c4        879
    x[4]      c5        972
    x[4]      c6        458
    x[4]      c1        557
    x[4]      OBJ       -922
    x[5]      c2        507
    x[5]      c3        819
    x[5]      c4        409
    x[5]      c5        444
    x[5]      c6        373
    x[5]      c1        301
    x[5]      OBJ       -1207
    x[6]      c2        6
    x[6]      c3        245
    x[6]      c4        474
    x[6]      c5        493
    x[6]      c6        124
    x[6]      c1        6
    x[6]      OBJ       -1245
    x[7]      c2        152
    x[7]      c3        467
    x[7]      c4        877
    x[7]      c5        293
    x[7]      c6        344
    x[7]      c1        111
    x[7]      OBJ       -1276
    x[8]      c2        603
    x[8]      c3        978
    x[8]      c4        569
    x[8]      c5        520
    x[8]      c6        901
    x[8]      c1        16
    x[8]      OBJ       -1555
    x[9]      c2        384
    x[9]      c3        31
    x[9]      c4        320
    x[9]      c5        521
    x[9]      c6        357
    x[9]      c1        704
    x[9]      OBJ       -707
    x[10]     c2        715
    x[10]     c3        619
    x[10]     c4        853
    x[10]     c5        605
    x[10]     c6        972
    x[10]     c1        952
    x[10]     OBJ       -482
    x[11]     c2        832
    x[11]     c3        56
    x[11]     c4        241
    x[11]     c5        607
    x[11]     c6        610
    x[11]     c1        408
    x[11]     OBJ       -1117
    x[12]     c2        370
    x[12]     c3        453
    x[12]     c4        577
    x[12]     c5        184
    x[12]     c6        167
    x[12]     c1        492
    x[12]     OBJ       -903
    x[13]     c2        725
    x[13]     c3        106
    x[13]     c4        970
    x[13]     c5        933
    x[13]     c6        183
    x[13]     c1        163
    x[13]     OBJ       -1488
    x[14]     c2        95
    x[14]     c3        467
    x[14]     c4        889
    x[14]     c5        485
    x[14]     c6        620
    x[14]     c1        938
    x[14]     OBJ       -308
    x[15]     c2        75
    x[15]     c3        948
    x[15]     c4        652
    x[15]     c5        609
    x[15]     c6        592
    x[15]     c1        315
    x[15]     OBJ       -1246
    x[16]     c2        433
    x[16]     c3        676
    x[16]     c4        753
    x[16]     c5        401
    x[16]     c6        579
    x[16]     c1        949
    x[16]     OBJ       -612
    x[17]     c2        914
    x[17]     c3        399
    x[17]     c4        497
    x[17]     c5        416
    x[17]     c6        459
    x[17]     c1        670
    x[17]     OBJ       -585
    x[18]     c2        945
    x[18]     c3        351
    x[18]     c4        812
    x[18]     c5        107
    x[18]     c6        815
    x[18]     c1        1000
    x[18]     OBJ       -292
    x[19]     c2        71
    x[19]     c3        24
    x[19]     c4        661
    x[19]     c5        289
    x[19]     c6        430
    x[19]     c1        457
    x[19]     OBJ       -660
    x[20]     c2        91
    x[20]     c3        607
    x[20]     c4        219
    x[20]     c5        747
    x[20]     c6        613
    x[20]     c1        816
    x[20]     OBJ       -422
    x[21]     c2        810
    x[21]     c3        528
    x[21]     c4        355
    x[21]     c5        71
    x[21]     c6        971
    x[21]     c1        357
    x[21]     OBJ       -893
    x[22]     c2        95
    x[22]     c3        928
    x[22]     c4        34
    x[22]     c5        246
    x[22]     c6        734
    x[22]     c1        495
    x[22]     OBJ       -908
    x[23]     c2        162
    x[23]     c3        86
    x[23]     c4        863
    x[23]     c5        723
    x[23]     c6        456
    x[23]     c1        916
    x[23]     OBJ       -651
    x[24]     c2        52
    x[24]     c3        143
    x[24]     c4        720
    x[24]     c5        362
    x[24]     c6        389
    x[24]     c1        852
    x[24]     OBJ       -475
    x[25]     c2        140
    x[25]     c3        201
    x[25]     c4        508
    x[25]     c5        337
    x[25]     c6        652
    x[25]     c1        614
    x[25]     OBJ       -424
    x[26]     c2        386
    x[26]     c3        89
    x[26]     c4        152
    x[26]     c5        174
    x[26]     c6        620
    x[26]     c1        161
    x[26]     OBJ       -823
    x[27]     c2        645
    x[27]     c3        482
    x[27]     c4        317
    x[27]     c5        401
    x[27]     c6        655
    x[27]     c1        60
    x[27]     OBJ       -1147
    x[28]     c2        75
    x[28]     c3        336
    x[28]     c4        254
    x[28]     c5        691
    x[28]     c6        383
    x[28]     c1        382
    x[28]     OBJ       -1024
    x[29]     c2        11
    x[29]     c3        595
    x[29]     c4        73
    x[29]     c5        836
    x[29]     c6        127
    x[29]     c1        373
    x[29]     OBJ       -675
    x[30]     c2        992
    x[30]     c3        653
    x[30]     c4        915
    x[30]     c5        371
    x[30]     c6        212
    x[30]     c1        570
    x[30]     OBJ       -993
    x[31]     c2        440
    x[31]     c3        441
    x[31]     c4        837
    x[31]     c5        609
    x[31]     c6        570
    x[31]     c1        182
    x[31]     OBJ       -1473
    x[32]     c2        508
    x[32]     c3        785
    x[32]     c4        315
    x[32]     c5        263
    x[32]     c6        247
    x[32]     c1        934
    x[32]     OBJ       -290
    x[33]     c2        252
    x[33]     c3        777
    x[33]     c4        604
    x[33]     c5        142
    x[33]     c6        52
    x[33]     c1        129
    x[33]     OBJ       -930
    x[34]     c2        589
    x[34]     c3        767
    x[34]     c4        484
    x[34]     c5        544
    x[34]     c6        691
    x[34]     c1        542
    x[34]     OBJ       -949
    x[35]     c2        769
    x[35]     c3        828
    x[35]     c4        797
    x[35]     c5        489
    x[35]     c6        894
    x[35]     c1        767
    x[35]     OBJ       -1055
    x[36]     c2        906
    x[36]     c3        748
    x[36]     c4        956
    x[36]     c5        777
    x[36]     c6        13
    x[36]     c1        964
    x[36]     OBJ       -452
    x[37]     c2        603
    x[37]     c3        628
    x[37]     c4        315
    x[37]     c5        163
    x[37]     c6        593
    x[37]     c1        896
    x[37]     OBJ       -542
    x[38]     c2        569
    x[38]     c3        637
    x[38]     c4        952
    x[38]     c5        886
    x[38]     c6        653
    x[38]     c1        350
    x[38]     OBJ       -1220
    x[39]     c2        636
    x[39]     c3        171
    x[39]     c4        681
    x[39]     c5        323
    x[39]     c6        782
    x[39]     c1        178
    x[39]     OBJ       -1412
    x[40]     c2        15
    x[40]     c3        510
    x[40]     c4        988
    x[40]     c5        359
    x[40]     c6        396
    x[40]     c1        557
    x[40]     OBJ       -671
    x[41]     c2        516
    x[41]     c3        455
    x[41]     c4        799
    x[41]     c5        385
    x[41]     c6        510
    x[41]     c1        975
    x[41]     OBJ       -311
    x[42]     c2        696
    x[42]     c3        244
    x[42]     c4        80
    x[42]     c5        632
    x[42]     c6        584
    x[42]     c1        70
    x[42]     OBJ       -1094
    x[43]     c2        122
    x[43]     c3        521
    x[43]     c4        559
    x[43]     c5        600
    x[43]     c6        705
    x[43]     c1        226
    x[43]     OBJ       -965
    x[44]     c2        196
    x[44]     c3        589
    x[44]     c4        677
    x[44]     c5        515
    x[44]     c6        914
    x[44]     c1        356
    x[44]     OBJ       -1142
    x[45]     c2        618
    x[45]     c3        130
    x[45]     c4        125
    x[45]     c5        372
    x[45]     c6        89
    x[45]     c1        404
    x[45]     OBJ       -731
    x[46]     c2        956
    x[46]     c3        626
    x[46]     c4        510
    x[46]     c5        770
    x[46]     c6        114
    x[46]     c1        79
    x[46]     OBJ       -1349
    x[47]     c2        977
    x[47]     c3        315
    x[47]     c4        665
    x[47]     c5        966
    x[47]     c6        991
    x[47]     c1        833
    x[47]     OBJ       -988
    x[48]     c2        831
    x[48]     c3        909
    x[48]     c4        191
    x[48]     c5        614
    x[48]     c6        263
    x[48]     c1        616
    x[48]     OBJ       -867
    x[49]     c2        418
    x[49]     c3        567
    x[49]     c4        63
    x[49]     c5        243
    x[49]     c6        791
    x[49]     c1        575
    x[49]     OBJ       -693
    x[50]     c2        683
    x[50]     c3        62
    x[50]     c4        946
    x[50]     c5        41
    x[50]     c6        467
    x[50]     c1        987
    x[50]     OBJ       -585
    x[51]     c2        510
    x[51]     c3        936
    x[51]     c4        432
    x[51]     c5        41
    x[51]     c6        465
    x[51]     c1        340
    x[51]     OBJ       -906
    x[52]     c2        151
    x[52]     c3        401
    x[52]     c4        75
    x[52]     c5        1
    x[52]     c6        429
    x[52]     c1        794
    x[52]     OBJ       -197
    x[53]     c2        245
    x[53]     c3        445
    x[53]     c4        632
    x[53]     c5        887
    x[53]     c6        89
    x[53]     c1        321
    x[53]     OBJ       -883
    x[54]     c2        96
    x[54]     c3        103
    x[54]     c4        887
    x[54]     c5        849
    x[54]     c6        834
    x[54]     c1        337
    x[54]     OBJ       -960
    x[55]     c2        197
    x[55]     c3        920
    x[55]     c4        456
    x[55]     c5        707
    x[55]     c6        658
    x[55]     c1        580
    x[55]     OBJ       -706
    x[56]     c2        657
    x[56]     c3        409
    x[56]     c4        71
    x[56]     c5        763
    x[56]     c6        268
    x[56]     c1        920
    x[56]     OBJ       -240
    x[57]     c2        88
    x[57]     c3        296
    x[57]     c4        433
    x[57]     c5        495
    x[57]     c6        42
    x[57]     c1        425
    x[57]     OBJ       -659
    x[58]     c2        346
    x[58]     c3        511
    x[58]     c4        18
    x[58]     c5        376
    x[58]     c6        73
    x[58]     c1        170
    x[58]     OBJ       -758
    x[59]     c2        453
    x[59]     c3        820
    x[59]     c4        864
    x[59]     c5        275
    x[59]     c6        450
    x[59]     c1        955
    x[59]     OBJ       -431
    x[60]     c2        416
    x[60]     c3        984
    x[60]     c4        191
    x[60]     c5        49
    x[60]     c6        730
    x[60]     c1        581
    x[60]     OBJ       -806
    x[61]     c2        595
    x[61]     c3        405
    x[61]     c4        22
    x[61]     c5        629
    x[61]     c6        170
    x[61]     c1        739
    x[61]     OBJ       -282
    x[62]     c2        566
    x[62]     c3        182
    x[62]     c4        659
    x[62]     c5        749
    x[62]     c6        488
    x[62]     c1        622
    x[62]     OBJ       -688
    x[63]     c2        308
    x[63]     c3        897
    x[63]     c4        702
    x[63]     c5        550
    x[63]     c6        532
    x[63]     c1        473
    x[63]     OBJ       -1061
    x[64]     c2        398
    x[64]     c3        803
    x[64]     c4        440
    x[64]     c5        505
    x[64]     c6        21
    x[64]     c1        789
    x[64]     OBJ       -610
    x[65]     c2        715
    x[65]     c3        110
    x[65]     c4        784
    x[65]     c5        94
    x[65]     c6        244
    x[65]     c1        946
    x[65]     OBJ       -522
    x[66]     c2        429
    x[66]     c3        661
    x[66]     c4        579
    x[66]     c5        104
    x[66]     c6        547
    x[66]     c1        499
    x[66]     OBJ       -955
    x[67]     c2        741
    x[67]     c3        724
    x[67]     c4        5
    x[67]     c5        721
    x[67]     c6        660
    x[67]     c1        666
    x[67]     OBJ       -910
    x[68]     c2        141
    x[68]     c3        369
    x[68]     c4        628
    x[68]     c5        765
    x[68]     c6        377
    x[68]     c1        546
    x[68]     OBJ       -709
    x[69]     c2        447
    x[69]     c3        867
    x[69]     c4        728
    x[69]     c5        75
    x[69]     c6        23
    x[69]     c1        630
    x[69]     OBJ       -817
    x[70]     c2        389
    x[70]     c3        329
    x[70]     c4        308
    x[70]     c5        369
    x[70]     c6        338
    x[70]     c1        997
    x[70]     OBJ       -154
    x[71]     c2        948
    x[71]     c3        724
    x[71]     c4        213
    x[71]     c5        170
    x[71]     c6        427
    x[71]     c1        462
    x[71]     OBJ       -1141
    x[72]     c2        139
    x[72]     c3        205
    x[72]     c4        581
    x[72]     c5        840
    x[72]     c6        712
    x[72]     c1        750
    x[72]     OBJ       -694
    x[73]     c2        173
    x[73]     c3        418
    x[73]     c4        353
    x[73]     c5        258
    x[73]     c6        95
    x[73]     c1        841
    x[73]     OBJ       -404
    x[74]     c2        113
    x[74]     c3        236
    x[74]     c4        342
    x[74]     c5        480
    x[74]     c6        364
    x[74]     c1        795
    x[74]     OBJ       -354
    x[75]     c2        901
    x[75]     c3        266
    x[75]     c4        150
    x[75]     c5        689
    x[75]     c6        942
    x[75]     c1        2
    x[75]     OBJ       -1253
    x[76]     c2        97
    x[76]     c3        852
    x[76]     c4        666
    x[76]     c5        90
    x[76]     c6        932
    x[76]     c1        522
    x[76]     OBJ       -1080
    x[77]     c2        59
    x[77]     c3        396
    x[77]     c4        66
    x[77]     c5        4
    x[77]     c6        913
    x[77]     c1        778
    x[77]     OBJ       -412
    x[78]     c2        896
    x[78]     c3        66
    x[78]     c4        303
    x[78]     c5        783
    x[78]     c6        210
    x[78]     c1        42
    x[78]     OBJ       -1427
    x[79]     c2        496
    x[79]     c3        346
    x[79]     c4        212
    x[79]     c5        481
    x[79]     c6        522
    x[79]     c1        714
    x[79]     OBJ       -645
    x[80]     c2        339
    x[80]     c3        854
    x[80]     c4        25
    x[80]     c5        763
    x[80]     c6        341
    x[80]     c1        645
    x[80]     OBJ       -915
    x[81]     c2        229
    x[81]     c3        503
    x[81]     c4        638
    x[81]     c5        317
    x[81]     c6        201
    x[81]     c1        855
    x[81]     OBJ       -561
    x[82]     c2        254
    x[82]     c3        521
    x[82]     c4        440
    x[82]     c5        833
    x[82]     c6        148
    x[82]     c1        396
    x[82]     OBJ       -738
    x[83]     c2        173
    x[83]     c3        607
    x[83]     c4        778
    x[83]     c5        526
    x[83]     c6        544
    x[83]     c1        768
    x[83]     OBJ       -654
    x[84]     c2        397
    x[84]     c3        7
    x[84]     c4        178
    x[84]     c5        345
    x[84]     c6        27
    x[84]     c1        392
    x[84]     OBJ       -757
    x[85]     c2        945
    x[85]     c3        83
    x[85]     c4        460
    x[85]     c5        590
    x[85]     c6        428
    x[85]     c1        141
    x[85]     OBJ       -1290
    x[86]     c2        573
    x[86]     c3        342
    x[86]     c4        80
    x[86]     c5        73
    x[86]     c6        615
    x[86]     c1        544
    x[86]     OBJ       -738
    x[87]     c2        999
    x[87]     c3        143
    x[87]     c4        470
    x[87]     c5        286
    x[87]     c6        184
    x[87]     c1        847
    x[87]     OBJ       -585
    x[88]     c2        754
    x[88]     c3        651
    x[88]     c4        400
    x[88]     c5        553
    x[88]     c6        618
    x[88]     c1        263
    x[88]     OBJ       -1212
    x[89]     c2        828
    x[89]     c3        990
    x[89]     c4        645
    x[89]     c5        306
    x[89]     c6        764
    x[89]     c1        325
    x[89]     OBJ       -1330
    x[90]     c2        145
    x[90]     c3        975
    x[90]     c4        937
    x[90]     c5        219
    x[90]     c6        618
    x[90]     c1        227
    x[90]     OBJ       -1080
    x[91]     c2        403
    x[91]     c3        51
    x[91]     c4        192
    x[91]     c5        128
    x[91]     c6        119
    x[91]     c1        765
    x[91]     OBJ       -295
    x[92]     c2        804
    x[92]     c3        67
    x[92]     c4        6
    x[92]     c5        119
    x[92]     c6        409
    x[92]     c1        128
    x[92]     OBJ       -983
    x[93]     c2        802
    x[93]     c3        29
    x[93]     c4        801
    x[93]     c5        722
    x[93]     c6        511
    x[93]     c1        10
    x[93]     OBJ       -1526
    x[94]     c2        38
    x[94]     c3        732
    x[94]     c4        692
    x[94]     c5        115
    x[94]     c6        995
    x[94]     c1        973
    x[94]     OBJ       -460
    x[95]     c2        324
    x[95]     c3        485
    x[95]     c4        58
    x[95]     c5        726
    x[95]     c6        607
    x[95]     c1        162
    x[95]     OBJ       -1098
    x[96]     c2        906
    x[96]     c3        298
    x[96]     c4        14
    x[96]     c5        438
    x[96]     c6        377
    x[96]     c1        743
    x[96]     OBJ       -620
    x[97]     c2        344
    x[97]     c3        889
    x[97]     c4        56
    x[97]     c5        457
    x[97]     c6        886
    x[97]     c1        208
    x[97]     OBJ       -1201
    x[98]     c2        98
    x[98]     c3        948
    x[98]     c4        933
    x[98]     c5        903
    x[98]     c6        292
    x[98]     c1        223
    x[98]     OBJ       -1412
    x[99]     c2        365
    x[99]     c3        871
    x[99]     c4        438
    x[99]     c5        353
    x[99]     c6        555
    x[99]     c1        981
    x[99]     OBJ       -442
    x[100]    c2        100
    x[100]    c3        206
    x[100]    c4        928
    x[100]    c5        463
    x[100]    c6        262
    x[100]    c1        143
    x[100]    OBJ       -1193
RHS
    rhs       c2        33727
    rhs       c3        36339
    rhs       c4        36746
    rhs       c5        35213
    rhs       c6        35615
    rhs       c1        3948
RANGES
BOUNDS
 LO bounds    ss[1]     0
 PL bounds    ss[1]
 MI bounds    s[1]
 UP bounds    s[1]      0
 MI bounds    s[2]
 UP bounds    s[2]      0
 MI bounds    s[3]
 UP bounds    s[3]      0
 MI bounds    s[4]
 UP bounds    s[4]      0
 MI bounds    s[5]
 UP bounds    s[5]      0
 BV bounds    x[1]
 BV bounds    x[2]
 BV bounds    x[3]
 BV bounds    x[4]
 BV bounds    x[5]
 BV bounds    x[6]
 BV bounds    x[7]
 BV bounds    x[8]
 BV bounds    x[9]
 BV bounds    x[10]
 BV bounds    x[11]
 BV bounds    x[12]
 BV bounds    x[13]
 BV bounds    x[14]
 BV bounds    x[15]
 BV bounds    x[16]
 BV bounds    x[17]
 BV bounds    x[18]
 BV bounds    x[19]
 BV bounds    x[20]
 BV bounds    x[21]
 BV bounds    x[22]
 BV bounds    x[23]
 BV bounds    x[24]
 BV bounds    x[25]
 BV bounds    x[26]
 BV bounds    x[27]
 BV bounds    x[28]
 BV bounds    x[29]
 BV bounds    x[30]
 BV bounds    x[31]
 BV bounds    x[32]
 BV bounds    x[33]
 BV bounds    x[34]
 BV bounds    x[35]
 BV bounds    x[36]
 BV bounds    x[37]
 BV bounds    x[38]
 BV bounds    x[39]
 BV bounds    x[40]
 BV bounds    x[41]
 BV bounds    x[42]
 BV bounds    x[43]
 BV bounds    x[44]
 BV bounds    x[45]
 BV bounds    x[46]
 BV bounds    x[47]
 BV bounds    x[48]
 BV bounds    x[49]
 BV bounds    x[50]
 BV bounds    x[51]
 BV bounds    x[52]
 BV bounds    x[53]
 BV bounds    x[54]
 BV bounds    x[55]
 BV bounds    x[56]
 BV bounds    x[57]
 BV bounds    x[58]
 BV bounds    x[59]
 BV bounds    x[60]
 BV bounds    x[61]
 BV bounds    x[62]
 BV bounds    x[63]
 BV bounds    x[64]
 BV bounds    x[65]
 BV bounds    x[66]
 BV bounds    x[67]
 BV bounds    x[68]
 BV bounds    x[69]
 BV bounds    x[70]
 BV bounds    x[71]
 BV bounds    x[72]
 BV bounds    x[73]
 BV bounds    x[74]
 BV bounds    x[75]
 BV bounds    x[76]
 BV bounds    x[77]
 BV bounds    x[78]
 BV bounds    x[79]
 BV bounds    x[80]
 BV bounds    x[81]
 BV bounds    x[82]
 BV bounds    x[83]
 BV bounds    x[84]
 BV bounds    x[85]
 BV bounds    x[86]
 BV bounds    x[87]
 BV bounds    x[88]
 BV bounds    x[89]
 BV bounds    x[90]
 BV bounds    x[91]
 BV bounds    x[92]
 BV bounds    x[93]
 BV bounds    x[94]
 BV bounds    x[95]
 BV bounds    x[96]
 BV bounds    x[97]
 BV bounds    x[98]
 BV bounds    x[99]
 BV bounds    x[100]
ENDATA
